
Gurobi 9.5.1 (linux64) logging started Tue 16 Aug 2022 06:30:27 PM MST

Set parameter LogFile to value "/home/local/ASUAD/kmajd1/NNRepLayer_v2/demos/walking_example/flow_constraint/repair_net/logs/opt_log_8_16_2022_18_28_54.log"
Gurobi Optimizer version 9.5.1 build v9.5.1rc2 (linux64)
Thread count: 48 physical cores, 96 logical processors, using up to 48 threads
Optimize a model with 99612 rows, 66057 columns and 678172 nonzeros
Model fingerprint: 0x1a99f3d6
Model has 1000 quadratic objective terms
Variable types: 34057 continuous, 32000 integer (32000 binary)
Coefficient statistics:
  Matrix range     [2e-04, 2e+02]
  Objective range  [1e-04, 1e+00]
  QObjective range [2e-02, 2e-02]
  Bounds range     [1e-01, 4e+02]
  RHS range        [2e-04, 2e+02]

Concurrent MIP optimizer: 3 concurrent instances (16 threads per instance)

Presolve removed 564 rows and 32 columns
Presolve time: 2.48s
Presolved: 99048 rows, 66025 columns, 677545 nonzeros
Presolved model has 1000 quadratic objective terms
Variable types: 34025 continuous, 32000 integer (32000 binary)
Root relaxation presolve removed 32000 rows and 32000 columns
Root relaxation presolved: 67048 rows, 34025 columns, 581545 nonzeros
Root relaxation presolved model has 1000 quadratic objective terms


Root simplex log...

Iteration    Objective       Primal Inf.    Dual Inf.      Time
       0    1.1289214e+00   0.000000e+00   0.000000e+00      6s
   12903    1.1289214e+00   0.000000e+00   0.000000e+00      7s
   12903    1.1289214e+00   0.000000e+00   0.000000e+00      7s

Root relaxation: objective 1.128921e+00, 12903 iterations, 1.82 seconds (1.80 work units)

    Nodes    |    Current Node    |     Objective Bounds      |     Work
 Expl Unexpl |  Obj  Depth IntInf | Incumbent    BestBd   Gap | It/Node Time

     0     0      -    -    -              -    1.12892      -     -    7s
     0     0      -    -    -              -    1.12892      -     -    9s
     0     2      -    -    -       12.09541    1.12892  90.7%     -   37s
     7    16      -    -    -       12.09541    1.12892  90.7%     -   40s
   191   208      -    -    -       12.07917    1.12892  90.7%     -  123s
   207   224      -    -    -       12.07917    1.12892  90.7%     -  149s
   223   256      -    -    -       10.35763    1.12892  89.1%     -  152s
   255   302      -    -    -       10.35763    1.12892  89.1%     -  155s
   477   494      -    -    -       10.30201    1.12892  89.0%     -  163s
   493   526      -    -    -       10.30201    1.12892  89.0%     -  233s
   691   770      -    -    -       10.30201    1.12892  89.0%     -  235s
  1193  1288      -    -    -       10.30201    1.12892  89.0%     -  248s
  1379  1477      -    -    -       10.30201    1.12892  89.0%     -  250s
  1579  1596      -    -    -       10.30201    1.12892  89.0%     -  270s
  2272  2422      -    -    -       10.01217    1.12892  88.7%     -  275s
  2735  2901      -    -    -       10.01217    1.12892  88.7%     -  280s
  3621  3816      -    -    -       10.01217    1.12892  88.7%     -  285s
  4015  4218      -    -    -       10.01217    1.12892  88.7%     -  290s
  4395  4628      -    -    -       10.01217    1.12892  88.7%     -  295s
  4854  5096      -    -    -       10.01217    1.12892  88.7%     -  307s
  5095  5307      -    -    -       10.01217    1.12892  88.7%     -  311s

Explored 5306 nodes (716889 simplex iterations) in 312.09 seconds (807.93 work units)
Thread count was 16 (of 96 available processors)

Solution count 10: 10.0122 10.302 10.3576 ... 12.0954 

Solve interrupted
Best objective 1.001216713791e+01, best bound 1.128921362410e+00, gap 88.7245%
